n= 1
m= 30
1000
155	4	4
84	14	7
76	16	8
40	14	7
156	4	1
113	2	2
187	9	9
137	9	9
49	21	7
117	20	5
34	27	9
113	3	1
91	14	7
199	27	9
183	6	3
152	18	6
105	9	9
21	10	5
169	16	8
91	6	2
187	21	7
193	9	3
16	10	5
191	4	2
176	12	6
134	3	1
27	4	2
134	6	6
120	2	1
94	12	6
